9 7 0 4 3 9 4 6 4 -1 
-1 6 7 6 4 2 6 8 4 -1 
5 9 1 5 9 3 6 -1 5 -1 
1 7 2 5 7 7 8 5 4 -1 
-1 6 -1 9 3 1 -1 3 3 -1 
0 6 8 8 0 0 9 3 9 -1 
4 8 2 2 3 1 -1 7 4 -1 
7 7 0 3 1 0 7 3 4 -1 
8 7 6 0 8 8 -1 0 -1 -1 
3 7 0 7 1 9 1 6 3 -1 
6 8 7 1 1 1 9 4 1 -1 
4 2 1 6 6 9 2 3 8 -1 
0 3 -1 9 1 1 5 0 2 -1 
0 -1 8 4 8 -1 6 8 -1 -1 
1 -1 1 9 9 -1 9 -1 9 -1 
